p cnf 200 1110
-101 53 0
-101 -99 0
-101 -28 0
-101 -18 0
-101 55 0
-101 25 0
-101 23 0
-101 40 0
-101 9 0
-101 -65 0
101 -53 99 28 18 -55 -25 -23 -40 -9 65 0
-102 9 0
-102 75 0
-102 -3 0
-102 94 0
-102 -20 0
-102 -74 0
-102 25 0
-102 -24 0
-102 100 0
-102 56 0
102 -9 -75 3 -94 20 74 -25 24 -100 -56 0
-103 73 0
-103 -84 0
-103 -17 0
-103 -85 0
-103 69 0
-103 -97 0
-103 41 0
-103 74 0
-103 39 0
-103 75 0
103 -73 84 17 85 -69 97 -41 -74 -39 -75 0
-104 -31 0
-104 81 0
-104 82 0
-104 40 0
-104 41 0
-104 52 0
-104 76 0
-104 -95 0
-104 35 0
-104 -16 0
104 31 -81 -82 -40 -41 -52 -76 95 -35 16 0
-105 19 0
-105 -95 0
-105 -34 0
-105 -88 0
-105 46 0
-105 -98 0
-105 -25 0
-105 -65 0
-105 -3 0
-105 -27 0
105 -19 95 34 88 -46 98 25 65 3 27 0
-106 88 0
-106 17 0
-106 -37 0
-106 42 0
-106 -93 0
-106 62 0
-106 -73 0
-106 -97 0
-106 13 0
-106 -26 0
106 -88 -17 37 -42 93 -62 73 97 -13 26 0
-107 13 0
-107 98 0
-107 81 0
-107 -50 0
-107 -18 0
-107 46 0
-107 -59 0
-107 -32 0
-107 -91 0
-107 33 0
107 -13 -98 -81 50 18 -46 59 32 91 -33 0
-108 -100 0
-108 -27 0
-108 -61 0
-108 33 0
-108 -29 0
-108 -31 0
-108 69 0
-108 97 0
-108 88 0
-108 32 0
108 100 27 61 -33 29 31 -69 -97 -88 -32 0
-109 77 0
-109 -40 0
-109 98 0
-109 61 0
-109 -88 0
-109 -73 0
-109 92 0
-109 50 0
-109 -89 0
-109 37 0
109 -77 40 -98 -61 88 73 -92 -50 89 -37 0
-110 79 0
-110 40 0
-110 -16 0
-110 19 0
-110 13 0
-110 -6 0
-110 -38 0
-110 4 0
-110 67 0
-110 7 0
110 -79 -40 16 -19 -13 6 38 -4 -67 -7 0
101 102 103 104 105 106 107 108 109 110 0
-111 -9 0
-111 13 0
-111 1 0
-111 25 0
-111 -90 0
-111 -76 0
-111 62 0
-111 -23 0
-111 56 0
-111 59 0
111 9 -13 -1 -25 90 76 -62 23 -56 -59 0
-112 -24 0
-112 -71 0
-112 49 0
-112 44 0
-112 -61 0
-112 29 0
-112 20 0
-112 28 0
-112 73 0
-112 -1 0
112 24 71 -49 -44 61 -29 -20 -28 -73 1 0
-113 -95 0
-113 -36 0
-113 47 0
-113 73 0
-113 -4 0
-113 52 0
-113 8 0
-113 -79 0
-113 -61 0
-113 -86 0
113 95 36 -47 -73 4 -52 -8 79 61 86 0
-114 48 0
-114 22 0
-114 -33 0
-114 -50 0
-114 -85 0
-114 74 0
-114 70 0
-114 -81 0
-114 -65 0
-114 -94 0
114 -48 -22 33 50 85 -74 -70 81 65 94 0
-115 94 0
-115 -39 0
-115 37 0
-115 -79 0
-115 -60 0
-115 23 0
-115 66 0
-115 36 0
-115 -54 0
-115 -47 0
115 -94 39 -37 79 60 -23 -66 -36 54 47 0
-116 21 0
-116 -49 0
-116 -38 0
-116 -70 0
-116 52 0
-116 -58 0
-116 99 0
-116 -8 0
-116 63 0
-116 -95 0
116 -21 49 38 70 -52 58 -99 8 -63 95 0
-117 -79 0
-117 -30 0
-117 -34 0
-117 63 0
-117 72 0
-117 -35 0
-117 -31 0
-117 -86 0
-117 37 0
-117 19 0
117 79 30 34 -63 -72 35 31 86 -37 -19 0
-118 -82 0
-118 -92 0
-118 -4 0
-118 -81 0
-118 71 0
-118 -34 0
-118 86 0
-118 -50 0
-118 8 0
-118 90 0
118 82 92 4 81 -71 34 -86 50 -8 -90 0
-119 68 0
-119 55 0
-119 2 0
-119 9 0
-119 1 0
-119 13 0
-119 74 0
-119 -33 0
-119 15 0
-119 20 0
119 -68 -55 -2 -9 -1 -13 -74 33 -15 -20 0
-120 -1 0
-120 -61 0
-120 97 0
-120 37 0
-120 81 0
-120 22 0
-120 -36 0
-120 -9 0
-120 -7 0
-120 -57 0
120 1 61 -97 -37 -81 -22 36 9 7 57 0
111 112 113 114 115 116 117 118 119 120 0
-121 -96 0
-121 -22 0
-121 23 0
-121 -77 0
-121 -30 0
-121 41 0
-121 7 0
-121 43 0
-121 -84 0
-121 35 0
121 96 22 -23 77 30 -41 -7 -43 84 -35 0
-122 -92 0
-122 88 0
-122 -27 0
-122 -5 0
-122 53 0
-122 65 0
-122 91 0
-122 -3 0
-122 -67 0
-122 -37 0
122 92 -88 27 5 -53 -65 -91 3 67 37 0
-123 -38 0
-123 -83 0
-123 39 0
-123 -17 0
-123 90 0
-123 -85 0
-123 -70 0
-123 -18 0
-123 -24 0
-123 -87 0
123 38 83 -39 17 -90 85 70 18 24 87 0
-124 -18 0
-124 -88 0
-124 -61 0
-124 53 0
-124 -84 0
-124 4 0
-124 -58 0
-124 -19 0
-124 -50 0
-124 -67 0
124 18 88 61 -53 84 -4 58 19 50 67 0
-125 9 0
-125 27 0
-125 83 0
-125 -95 0
-125 88 0
-125 26 0
-125 24 0
-125 70 0
-125 30 0
-125 64 0
125 -9 -27 -83 95 -88 -26 -24 -70 -30 -64 0
-126 -55 0
-126 38 0
-126 1 0
-126 -14 0
-126 35 0
-126 -10 0
-126 -8 0
-126 92 0
-126 -16 0
-126 29 0
126 55 -38 -1 14 -35 10 8 -92 16 -29 0
-127 89 0
-127 1 0
-127 -93 0
-127 91 0
-127 82 0
-127 -88 0
-127 -63 0
-127 57 0
-127 -61 0
-127 -34 0
127 -89 -1 93 -91 -82 88 63 -57 61 34 0
-128 90 0
-128 73 0
-128 -89 0
-128 -25 0
-128 4 0
-128 -81 0
-128 -100 0
-128 -40 0
-128 3 0
-128 -46 0
128 -90 -73 89 25 -4 81 100 40 -3 46 0
-129 56 0
-129 85 0
-129 80 0
-129 -95 0
-129 16 0
-129 53 0
-129 72 0
-129 61 0
-129 -99 0
-129 -48 0
129 -56 -85 -80 95 -16 -53 -72 -61 99 48 0
-130 28 0
-130 74 0
-130 5 0
-130 60 0
-130 38 0
-130 92 0
-130 -58 0
-130 40 0
-130 95 0
-130 -29 0
130 -28 -74 -5 -60 -38 -92 58 -40 -95 29 0
121 122 123 124 125 126 127 128 129 130 0
-131 81 0
-131 89 0
-131 -97 0
-131 -56 0
-131 -99 0
-131 -15 0
-131 -43 0
-131 -57 0
-131 32 0
-131 76 0
131 -81 -89 97 56 99 15 43 57 -32 -76 0
-132 -20 0
-132 -29 0
-132 -7 0
-132 -88 0
-132 45 0
-132 90 0
-132 -46 0
-132 -80 0
-132 68 0
-132 2 0
132 20 29 7 88 -45 -90 46 80 -68 -2 0
-133 13 0
-133 61 0
-133 18 0
-133 91 0
-133 99 0
-133 -9 0
-133 -88 0
-133 -89 0
-133 -66 0
-133 -30 0
133 -13 -61 -18 -91 -99 9 88 89 66 30 0
-134 16 0
-134 62 0
-134 81 0
-134 -68 0
-134 -39 0
-134 42 0
-134 -5 0
-134 77 0
-134 86 0
-134 -96 0
134 -16 -62 -81 68 39 -42 5 -77 -86 96 0
-135 67 0
-135 -76 0
-135 -47 0
-135 -87 0
-135 -81 0
-135 -20 0
-135 10 0
-135 2 0
-135 34 0
-135 -7 0
135 -67 76 47 87 81 20 -10 -2 -34 7 0
-136 86 0
-136 74 0
-136 -36 0
-136 66 0
-136 -96 0
-136 97 0
-136 -30 0
-136 -57 0
-136 64 0
-136 -53 0
136 -86 -74 36 -66 96 -97 30 57 -64 53 0
-137 41 0
-137 -49 0
-137 84 0
-137 -65 0
-137 17 0
-137 -67 0
-137 46 0
-137 87 0
-137 -23 0
-137 28 0
137 -41 49 -84 65 -17 67 -46 -87 23 -28 0
-138 -47 0
-138 78 0
-138 9 0
-138 -20 0
-138 -80 0
-138 28 0
-138 55 0
-138 69 0
-138 -13 0
-138 -57 0
138 47 -78 -9 20 80 -28 -55 -69 13 57 0
-139 -69 0
-139 99 0
-139 94 0
-139 -32 0
-139 -72 0
-139 -15 0
-139 59 0
-139 43 0
-139 -60 0
-139 86 0
139 69 -99 -94 32 72 15 -59 -43 60 -86 0
-140 97 0
-140 -7 0
-140 -85 0
-140 -56 0
-140 18 0
-140 -30 0
-140 60 0
-140 75 0
-140 55 0
-140 79 0
140 -97 7 85 56 -18 30 -60 -75 -55 -79 0
131 132 133 134 135 136 137 138 139 140 0
-141 87 0
-141 55 0
-141 -18 0
-141 42 0
-141 94 0
-141 52 0
-141 -13 0
-141 -95 0
-141 -48 0
-141 72 0
141 -87 -55 18 -42 -94 -52 13 95 48 -72 0
-142 -59 0
-142 -98 0
-142 92 0
-142 43 0
-142 14 0
-142 -99 0
-142 1 0
-142 67 0
-142 6 0
-142 -93 0
142 59 98 -92 -43 -14 99 -1 -67 -6 93 0
-143 -72 0
-143 68 0
-143 25 0
-143 -22 0
-143 -84 0
-143 -2 0
-143 -97 0
-143 -23 0
-143 -40 0
-143 -3 0
143 72 -68 -25 22 84 2 97 23 40 3 0
-144 58 0
-144 75 0
-144 37 0
-144 -48 0
-144 -34 0
-144 59 0
-144 -66 0
-144 40 0
-144 -70 0
-144 80 0
144 -58 -75 -37 48 34 -59 66 -40 70 -80 0
-145 80 0
-145 78 0
-145 68 0
-145 26 0
-145 24 0
-145 82 0
-145 -77 0
-145 9 0
-145 38 0
-145 20 0
145 -80 -78 -68 -26 -24 -82 77 -9 -38 -20 0
-146 -54 0
-146 3 0
-146 90 0
-146 50 0
-146 69 0
-146 -34 0
-146 33 0
-146 24 0
-146 -71 0
-146 -29 0
146 54 -3 -90 -50 -69 34 -33 -24 71 29 0
-147 5 0
-147 -95 0
-147 72 0
-147 40 0
-147 66 0
-147 29 0
-147 99 0
-147 -58 0
-147 49 0
-147 -73 0
147 -5 95 -72 -40 -66 -29 -99 58 -49 73 0
-148 53 0
-148 -36 0
-148 -5 0
-148 -77 0
-148 -67 0
-148 97 0
-148 -32 0
-148 -24 0
-148 6 0
-148 65 0
148 -53 36 5 77 67 -97 32 24 -6 -65 0
-149 91 0
-149 42 0
-149 -20 0
-149 72 0
-149 -39 0
-149 53 0
-149 54 0
-149 69 0
-149 -25 0
-149 79 0
149 -91 -42 20 -72 39 -53 -54 -69 25 -79 0
-150 -14 0
-150 25 0
-150 59 0
-150 -17 0
-150 -64 0
-150 92 0
-150 91 0
-150 -75 0
-150 94 0
-150 -96 0
150 14 -25 -59 17 64 -92 -91 75 -94 96 0
141 142 143 144 145 146 147 148 149 150 0
-151 -57 0
-151 89 0
-151 61 0
-151 10 0
-151 73 0
-151 33 0
-151 -32 0
-151 -39 0
-151 -52 0
-151 -76 0
151 57 -89 -61 -10 -73 -33 32 39 52 76 0
-152 40 0
-152 71 0
-152 31 0
-152 62 0
-152 64 0
-152 -3 0
-152 -63 0
-152 -57 0
-152 60 0
-152 -39 0
152 -40 -71 -31 -62 -64 3 63 57 -60 39 0
-153 -14 0
-153 -44 0
-153 -54 0
-153 67 0
-153 71 0
-153 29 0
-153 -60 0
-153 -30 0
-153 45 0
-153 5 0
153 14 44 54 -67 -71 -29 60 30 -45 -5 0
-154 62 0
-154 -24 0
-154 4 0
-154 40 0
-154 -30 0
-154 45 0
-154 41 0
-154 -46 0
-154 -17 0
-154 -89 0
154 -62 24 -4 -40 30 -45 -41 46 17 89 0
-155 92 0
-155 78 0
-155 32 0
-155 35 0
-155 10 0
-155 80 0
-155 -85 0
-155 -12 0
-155 70 0
-155 64 0
155 -92 -78 -32 -35 -10 -80 85 12 -70 -64 0
-156 -46 0
-156 -99 0
-156 29 0
-156 -48 0
-156 -34 0
-156 60 0
-156 43 0
-156 -64 0
-156 97 0
-156 -39 0
156 46 99 -29 48 34 -60 -43 64 -97 39 0
-157 -41 0
-157 68 0
-157 10 0
-157 60 0
-157 -31 0
-157 7 0
-157 96 0
-157 -73 0
-157 77 0
-157 40 0
157 41 -68 -10 -60 31 -7 -96 73 -77 -40 0
-158 -23 0
-158 -61 0
-158 -44 0
-158 5 0
-158 -18 0
-158 -1 0
-158 -75 0
-158 26 0
-158 -92 0
-158 -59 0
158 23 61 44 -5 18 1 75 -26 92 59 0
-159 65 0
-159 100 0
-159 77 0
-159 -61 0
-159 83 0
-159 68 0
-159 88 0
-159 -40 0
-159 -11 0
-159 -99 0
159 -65 -100 -77 61 -83 -68 -88 40 11 99 0
-160 -47 0
-160 -39 0
-160 5 0
-160 29 0
-160 48 0
-160 -98 0
-160 18 0
-160 83 0
-160 -52 0
-160 -89 0
160 47 39 -5 -29 -48 98 -18 -83 52 89 0
151 152 153 154 155 156 157 158 159 160 0
-161 -27 0
-161 -79 0
-161 78 0
-161 -90 0
-161 -24 0
-161 -33 0
-161 -89 0
-161 2 0
-161 99 0
-161 -59 0
161 27 79 -78 90 24 33 89 -2 -99 59 0
-162 -76 0
-162 53 0
-162 -50 0
-162 -84 0
-162 -28 0
-162 49 0
-162 -39 0
-162 -81 0
-162 62 0
-162 -18 0
162 76 -53 50 84 28 -49 39 81 -62 18 0
-163 -44 0
-163 84 0
-163 -1 0
-163 32 0
-163 -68 0
-163 -93 0
-163 20 0
-163 -47 0
-163 -21 0
-163 -13 0
163 44 -84 1 -32 68 93 -20 47 21 13 0
-164 82 0
-164 -94 0
-164 70 0
-164 73 0
-164 -52 0
-164 -55 0
-164 -12 0
-164 -65 0
-164 7 0
-164 34 0
164 -82 94 -70 -73 52 55 12 65 -7 -34 0
-165 -50 0
-165 -83 0
-165 -48 0
-165 67 0
-165 2 0
-165 -75 0
-165 1 0
-165 87 0
-165 35 0
-165 97 0
165 50 83 48 -67 -2 75 -1 -87 -35 -97 0
-166 3 0
-166 -59 0
-166 -67 0
-166 -92 0
-166 36 0
-166 -77 0
-166 -33 0
-166 83 0
-166 -63 0
-166 -8 0
166 -3 59 67 92 -36 77 33 -83 63 8 0
-167 -33 0
-167 -60 0
-167 64 0
-167 89 0
-167 20 0
-167 -35 0
-167 59 0
-167 70 0
-167 -99 0
-167 38 0
167 33 60 -64 -89 -20 35 -59 -70 99 -38 0
-168 74 0
-168 -65 0
-168 36 0
-168 -83 0
-168 22 0
-168 -63 0
-168 54 0
-168 -38 0
-168 20 0
-168 -11 0
168 -74 65 -36 83 -22 63 -54 38 -20 11 0
-169 52 0
-169 -66 0
-169 -93 0
-169 -90 0
-169 34 0
-169 -25 0
-169 88 0
-169 30 0
-169 -61 0
-169 50 0
169 -52 66 93 90 -34 25 -88 -30 61 -50 0
-170 -8 0
-170 -60 0
-170 53 0
-170 -92 0
-170 -40 0
-170 -63 0
-170 -78 0
-170 -54 0
-170 -17 0
-170 -20 0
170 8 60 -53 92 40 63 78 54 17 20 0
161 162 163 164 165 166 167 168 169 170 0
-171 -83 0
-171 -18 0
-171 94 0
-171 49 0
-171 -39 0
-171 -82 0
-171 -95 0
-171 16 0
-171 -3 0
-171 68 0
171 83 18 -94 -49 39 82 95 -16 3 -68 0
-172 -73 0
-172 48 0
-172 -83 0
-172 88 0
-172 -15 0
-172 61 0
-172 66 0
-172 24 0
-172 74 0
-172 23 0
172 73 -48 83 -88 15 -61 -66 -24 -74 -23 0
-173 28 0
-173 51 0
-173 -74 0
-173 22 0
-173 -89 0
-173 -99 0
-173 -23 0
-173 -93 0
-173 4 0
-173 76 0
173 -28 -51 74 -22 89 99 23 93 -4 -76 0
-174 59 0
-174 -64 0
-174 -4 0
-174 -73 0
-174 70 0
-174 -15 0
-174 -27 0
-174 -80 0
-174 -79 0
-174 87 0
174 -59 64 4 73 -70 15 27 80 79 -87 0
-175 83 0
-175 -48 0
-175 78 0
-175 -14 0
-175 39 0
-175 80 0
-175 -2 0
-175 17 0
-175 -32 0
-175 -90 0
175 -83 48 -78 14 -39 -80 2 -17 32 90 0
-176 -10 0
-176 59 0
-176 -93 0
-176 -71 0
-176 98 0
-176 36 0
-176 -77 0
-176 -99 0
-176 48 0
-176 16 0
176 10 -59 93 71 -98 -36 77 99 -48 -16 0
-177 -78 0
-177 -63 0
-177 49 0
-177 -59 0
-177 33 0
-177 12 0
-177 67 0
-177 -4 0
-177 -27 0
-177 -42 0
177 78 63 -49 59 -33 -12 -67 4 27 42 0
-178 -90 0
-178 -61 0
-178 59 0
-178 -60 0
-178 -8 0
-178 27 0
-178 -98 0
-178 49 0
-178 95 0
-178 23 0
178 90 61 -59 60 8 -27 98 -49 -95 -23 0
-179 9 0
-179 -62 0
-179 96 0
-179 -81 0
-179 -19 0
-179 -15 0
-179 -47 0
-179 21 0
-179 69 0
-179 51 0
179 -9 62 -96 81 19 15 47 -21 -69 -51 0
-180 15 0
-180 -26 0
-180 -47 0
-180 -70 0
-180 61 0
-180 93 0
-180 2 0
-180 -96 0
-180 -73 0
-180 -4 0
180 -15 26 47 70 -61 -93 -2 96 73 4 0
171 172 173 174 175 176 177 178 179 180 0
-181 96 0
-181 -32 0
-181 -89 0
-181 18 0
-181 98 0
-181 -61 0
-181 -12 0
-181 70 0
-181 -85 0
-181 86 0
181 -96 32 89 -18 -98 61 12 -70 85 -86 0
-182 -79 0
-182 -70 0
-182 60 0
-182 19 0
-182 69 0
-182 -32 0
-182 50 0
-182 73 0
-182 -38 0
-182 18 0
182 79 70 -60 -19 -69 32 -50 -73 38 -18 0
-183 68 0
-183 37 0
-183 73 0
-183 53 0
-183 24 0
-183 -40 0
-183 -8 0
-183 60 0
-183 -22 0
-183 -18 0
183 -68 -37 -73 -53 -24 40 8 -60 22 18 0
-184 -41 0
-184 -55 0
-184 51 0
-184 80 0
-184 97 0
-184 -70 0
-184 -30 0
-184 68 0
-184 8 0
-184 -89 0
184 41 55 -51 -80 -97 70 30 -68 -8 89 0
-185 -49 0
-185 9 0
-185 22 0
-185 100 0
-185 -86 0
-185 -54 0
-185 -6 0
-185 -34 0
-185 24 0
-185 30 0
185 49 -9 -22 -100 86 54 6 34 -24 -30 0
-186 70 0
-186 -19 0
-186 -89 0
-186 -38 0
-186 -20 0
-186 -71 0
-186 -63 0
-186 -59 0
-186 -56 0
-186 -90 0
186 -70 19 89 38 20 71 63 59 56 90 0
-187 -17 0
-187 99 0
-187 80 0
-187 24 0
-187 1 0
-187 37 0
-187 62 0
-187 -40 0
-187 -69 0
-187 -59 0
187 17 -99 -80 -24 -1 -37 -62 40 69 59 0
-188 38 0
-188 -31 0
-188 24 0
-188 57 0
-188 -23 0
-188 91 0
-188 -27 0
-188 -25 0
-188 100 0
-188 -26 0
188 -38 31 -24 -57 23 -91 27 25 -100 26 0
-189 70 0
-189 39 0
-189 -65 0
-189 -14 0
-189 -94 0
-189 87 0
-189 72 0
-189 16 0
-189 10 0
-189 92 0
189 -70 -39 65 14 94 -87 -72 -16 -10 -92 0
-190 58 0
-190 -7 0
-190 84 0
-190 24 0
-190 85 0
-190 -64 0
-190 -27 0
-190 95 0
-190 -13 0
-190 -33 0
190 -58 7 -84 -24 -85 64 27 -95 13 33 0
181 182 183 184 185 186 187 188 189 190 0
-191 86 0
-191 -98 0
-191 35 0
-191 74 0
-191 -97 0
-191 81 0
-191 -76 0
-191 88 0
-191 -47 0
-191 48 0
191 -86 98 -35 -74 97 -81 76 -88 47 -48 0
-192 88 0
-192 -80 0
-192 3 0
-192 -75 0
-192 -53 0
-192 22 0
-192 -62 0
-192 -48 0
-192 -60 0
-192 -82 0
192 -88 80 -3 75 53 -22 62 48 60 82 0
-193 11 0
-193 -2 0
-193 79 0
-193 -87 0
-193 -45 0
-193 40 0
-193 59 0
-193 3 0
-193 62 0
-193 -24 0
193 -11 2 -79 87 45 -40 -59 -3 -62 24 0
-194 -49 0
-194 27 0
-194 -39 0
-194 -90 0
-194 -33 0
-194 -24 0
-194 100 0
-194 52 0
-194 -59 0
-194 -26 0
194 49 -27 39 90 33 24 -100 -52 59 26 0
-195 -30 0
-195 -73 0
-195 -11 0
-195 -29 0
-195 60 0
-195 -79 0
-195 -18 0
-195 96 0
-195 77 0
-195 -87 0
195 30 73 11 29 -60 79 18 -96 -77 87 0
-196 -58 0
-196 55 0
-196 62 0
-196 46 0
-196 -16 0
-196 -47 0
-196 6 0
-196 3 0
-196 -4 0
-196 35 0
196 58 -55 -62 -46 16 47 -6 -3 4 -35 0
-197 -15 0
-197 -69 0
-197 14 0
-197 -26 0
-197 36 0
-197 -11 0
-197 5 0
-197 -45 0
-197 -18 0
-197 44 0
197 15 69 -14 26 -36 11 -5 45 18 -44 0
-198 92 0
-198 86 0
-198 41 0
-198 -62 0
-198 19 0
-198 -84 0
-198 22 0
-198 72 0
-198 -25 0
-198 12 0
198 -92 -86 -41 62 -19 84 -22 -72 25 -12 0
-199 64 0
-199 26 0
-199 13 0
-199 -71 0
-199 -80 0
-199 66 0
-199 70 0
-199 -65 0
-199 -58 0
-199 -86 0
199 -64 -26 -13 71 80 -66 -70 65 58 86 0
-200 80 0
-200 81 0
-200 64 0
-200 54 0
-200 22 0
-200 -67 0
-200 96 0
-200 49 0
-200 3 0
-200 24 0
200 -80 -81 -64 -54 -22 67 -96 -49 -3 -24 0
191 192 193 194 195 196 197 198 199 200 0
